25
    1     4     4
    2     6     6
    3     8     8
    4    19    19
    5    14    14
    6    20    20
    7     3     3
    8    20    20
    9     8     8
   10     6     6
   11    14    14
   12     1     1
   13     1     1
   14    10    10
   15     8     8
   16    20    20
   17     9     9
   18    15    15
   19    10    10
   20     3     3
   21     8     8
   22    15    15
   23     3     3
   24    15    15
   25    16    16
21
